
%FILE DATA:	Soccer Computational Problem for MiniZinc Models	%
%AUTHOR:	Jack Wall	%
%CONTACT:  	116397063@umail.ucc.ie			%
%LAST UPDATE:	03/03/2020, 12:08:58						%
%DESCRIPTION: 	40 games played with 16 games left				%


n=8; %number of teams

%Games to play
games=[|6,2|2,7|5,8|7,6|2,5|3,6|4,2|7,8|7,2|5,3|8,6|1,3|2,4|5,7|6,1|1,6|];

%Initial points
iPoints=[13,10,18,16,12,16,14,7];

%POSITION CONSTRAINTS
% [|teamID, operator, position|...]
% operators index:
%  1 for =  operator
%  2 for >  operator
%  3 for >= operator
%  4 for <  operator
%  5 for <= operator
positionConstraints=[|3,5,1|6,3,2|7,3,3|2,2,3|];